21919.0
1621,1576,250,1585,219,1416,1963,976,575,1445,230,253,1478,1187,838,1397,141,274,88,89,1723,783,1601,1017,1567,1063,268,357,1302,524,85,422,1522,1676,1504,1097,724,211,1344,1899,76,757,1874,1644,225,1540,1849,233,12,883,204,113,1167,169,1945,1474,1406,1439,475,663,637,1105,1599,26,1690,1615,1273,432,1369,423,1261,1660,721,242,1637,921,1385,694,1198,498,1193,1220,1689,597,1890,909,1681,1353,1978,1605,1159,1657,675,271,307,1835,583,1834,1224,946,833,163,1623,1887,273,739,926,1464,1206,668,490,74,1314,1451,323,1007,1351,1471,20,1267,1617
